NAME          ADLITTLE SIZE: N=97, M=57, NZ=480
ROWS
 N  .Z....
 L  ....01
 E  ....02
 L  ....03
 L  ....04
 L  ....05
 L  ....06
 L  ....07
 L  ....08
 L  ....09
 E  ....10
 L  ....11
 L  ....12
 L  ....13
 L  ....14
 L  ....15
 L  ....16
 L  ....17
 L  ....18
 L  ....19
 L  ....20
 L  ....21
 L  ....22
 L  ....23
 L  ....24
 E  ....25
 L  ....26
 L  ....27
 E  ....28
 L  ....29
 L  ....30
 E  ....31
 E  ....32
 E  ....33
 L  ....34
 L  ....35
 E  ....36
 L  ....37
 L  ....38
 L  ....39
 E  ....40
 L  ....41
 E  ....42
 E  ....43
 E  ....44
 L  ....45
 L  ....46
 L  ....47
 L  ....48
 E  ....49
 E  ....50
 G  ....51
 L  ....52
 L  ....53
 E  ....54
 L  ....55
 L  ....56
COLUMNS
    ...100    .Z....          -3280.   ....01            .506
    ...100    ....04              1.   ....05            .182
    ...100    ....55            .312
    ...101    .Z....          -3280.   ....01            .638
    ...101    ....04              1.   ....05             .05
    ...101    ....55            .312
    ...102    .Z....           3310.   ....01             -1.
    ...103    .Z....          -1890.   ....05             .92
    ...103    ....30              1.   ....49            -9.5
    ...103    ....52           -.042   ....53           -.063
    ...103    ....55             .08
    ...104    ....34            .825   ....35            .175
    ...104    ....40              1.   ....51             16.
    ...105    ....35            .175   ....40              1.
    ...105    ....46            .825   ....51             21.
    ...106    .Z....          -1890.   ....06              1.
    ...106    ....30              1.   ....49             3.6
    ...106    ....52           -.042   ....53           -.063
    ...107    .Z....           -903.   ....06              1.
    ...107    ....38              1.
    ...108    ....06              1.   ....50             -.8
    ...109    .Z....            432.   ....31           -1.23
    ...109    ....42             .23
    ...110    .Z....            432.   ....32           -1.23
    ...110    ....43             .23   ....56              1.
    ...111    .Z....            432.   ....33           -1.23
    ...111    ....44             .23   ....56              1.
    ...112    .Z....            446.   ....07              1.
    ...112    ....31             -1.
    ...113    .Z....            446.   ....07              1.
    ...113    ....32             -1.
    ...114    .Z....            446.   ....07              1.
    ...114    ....33             -1.
    ...115    .Z....            450.   ....08              1.
    ...115    ....31            -.95   ....42            -.05
    ...116    .Z....            450.   ....08              1.
    ...116    ....32            -.95   ....43            -.05
    ...117    .Z....            450.   ....08              1.
    ...117    ....33            -.95   ....44            -.05
    ...118    .Z....            459.   ....09              1.
    ...118    ....31            -.79   ....42            -.21
    ...119    .Z....            459.   ....09              1.
    ...119    ....32            -.79   ....43            -.21
    ...120    .Z....            459.   ....09              1.
    ...120    ....33            -.79   ....44            -.21
    ...121    .Z....            483.   ....11              1.
    ...121    ....31            -.42   ....42            -.58
    ...122    .Z....            483.   ....11              1.
    ...122    ....32            -.42   ....43            -.58
    ...123    .Z....            483.   ....11              1.
    ...123    ....33            -.42   ....44            -.58
    ...124    .Z....            500.   ....12              1.
    ...124    ....31            -.05   ....42            -.95
    ...125    .Z....            500.   ....12              1.
    ...125    ....32            -.05   ....43            -.95
    ...126    .Z....            500.   ....12              1.
    ...126    ....33            -.05   ....44            -.95
    ...127    .Z....            493.   ....13              1.
    ...127    ....31            -.26   ....42            -.74
    ...128    .Z....            493.   ....13              1.
    ...128    ....32            -.26   ....43            -.74
    ...129    .Z....            493.   ....13              1.
    ...129    ....33            -.26   ....44            -.74
    ...130    .Z....          -1890.   ....14              1.
    ...130    ....30              1.   ....49            -3.2
    ...130    ....52           -.042   ....53           -.063
    ...131    .Z....           -903.   ....14              1.
    ...131    ....38              1.
    ...132    .Z....            506.   ....17              1.
    ...132    ....31             .26   ....42           -1.26
    ...133    ....14              1.   ....50             -.8
    ...134    .Z....            506.   ....17              1.
    ...134    ....32             .26   ....43           -1.26
    ...135    .Z....            506.   ....17              1.
    ...135    ....33             .26   ....44           -1.26
    ...136    .Z....            505.   ....15              1.
    ...136    ....31             .16   ....42           -1.16
    ...137    .Z....            505.   ....15              1.
    ...137    ....32             .16   ....43           -1.16
    ...138    .Z....            505.   ....15              1.
    ...138    ....33             .16   ....44           -1.16
    ...139    .Z....            499.   ....16              1.
    ...139    ....31            -.16   ....42            -.84
    ...140    .Z....            499.   ....16              1.
    ...140    ....32            -.16   ....43            -.84
    ...141    .Z....            499.   ....16              1.
    ...141    ....33            -.16   ....44            -.84
    ...142    ....10             -1.
    ...143    ....02              1.   ....03             .79
    ...143    ....10             37.   ....28            .494
    ...143    ....34            .506   ....54         2.27424
    ...144    ....02              1.   ....03             .53
    ...144    ....10             47.   ....28            .492
    ...144    ....46            .508   ....54          2.2632
    ...145    .Z....            512.   ....18              1.
    ...145    ....31             .62   ....42           -1.62
    ...146    .Z....            512.   ....18              1.
    ...146    ....32             .62   ....43           -1.62
    ...147    .Z....            512.   ....18              1.
    ...147    ....33             .62   ....44           -1.62
    ...148    .Z....            70.9   ....01           -.247
    ...148    ....06           .1726   ....14          -.3122
    ...148    ....20           1.783   ....28           .4703
    ...148    ....50          -.0928   ....54         1.40015
    ...149    .Z....            39.8   ....01           -.157
    ...149    ....14          -.2399   ....20              1.
    ...149    ....28           .4273   ....50          -.0361
    ...149    ....54         1.20404
    ...150    .Z....            39.8   ....01           -.157
    ...150    ....14          -.2789   ....20              1.
    ...150    ....28           .4663   ....50          -.0361
    ...150    ....54         1.43498
    ...151    .Z....            2.04   ....26              1.
    ...151    ....28             .55   ....50            -.52
    ...151    ....54              .6
    ...152    ....28              1.   ....50             -1.
    ...152    ....54             1.8
    ...153    .Z....             1.8   ....03            -.33
    ...153    ....21              1.   ....50            .017
    ...154    .Z....             1.8   ....21              1.
    ...154    ....37            -.33
    ...155    .Z....          -2600.   ....01              .2
    ...155    ....14             .73   ....29              1.
    ...155    ....55             .07
    ...156    .Z....          -2600.   ....14             .72
    ...156    ....29              1.   ....47              .2
    ...156    ....55             .08
    ...157    .Z....            10.4   ....02              1.
    ...157    ....03             .25   ....10             45.
    ...157    ....22            .875   ....28           .3675
    ...157    ....34           .6325   ....50          .02536
    ...157    ....54           1.614
    ...158    .Z....            10.4   ....02              1.
    ...158    ....03              .2   ....10             55.
    ...158    ....22            .875   ....28            .365
    ...158    ....46            .635   ....50          .02538
    ...158    ....54            1.59
    ...159    .Z....            28.8   ....19              1.
    ...159    ....28           -.828   ....31              1.
    ...159    ....34           -.095   ....35            -.02
    ...159    ....50            .012   ....54           -1.42
    ...159    ....55          -.0467
    ...160    .Z....            43.4   ....01          -.0022
    ...160    ....06          -.0192   ....19              1.
    ...160    ....27            .679   ....28           -.808
    ...160    ....32              1.   ....34           -.095
    ...160    ....35            -.02   ....50           .0205
    ...160    ....54           -1.84   ....55          -.0467
    ...161    .Z....            30.4   ....01          -.0022
    ...161    ....06          -.0192   ....24              1.
    ...161    ....27            .679   ....28           -.808
    ...161    ....33              1.   ....34           -.095
    ...161    ....35            -.02   ....50           .0205
    ...161    ....54           -1.84   ....55          -.0467
    ...162    ....28             -1.   ....34              1.
    ...162    ....54            -5.2
    ...163    ....28             -1.   ....35              1.
    ...163    ....54            -6.7
    ...164    .Z....          -1218.   ....35              1.
    ...164    ....48              1.
    ...165    ....35              1.   ....50             -.8
    ...166    ....28            .482   ....34            .498
    ...166    ....35             .02   ....36              1.
    ...166    ....37             .79   ....54           2.217
    ...167    ....28            .474   ....35             .02
    ...167    ....36              1.   ....37             .53
    ...167    ....46            .506   ....54            2.18
    ...168    .Z....          -1322.   ....06             .07
    ...168    ....35              .1   ....39              1.
    ...168    ....55             .83
    ...169    .Z....          -1322.   ....35             .07
    ...169    ....39              1.   ....46             .33
    ...169    ....55              .6
    ...170    .Z....          -1322.   ....34             .33
    ...170    ....35             .07   ....39              1.
    ...170    ....55              .6
    ...171    .Z....          -1660.   ....22            .625
    ...171    ....28           -.125   ....34           1.125
    ...171    ....41              1.   ....50          .01812
    ...171    ....54            -.65
    ...172    .Z....          -1670.   ....41              1.
    ...172    ....46              1.
    ...173    .Z....            14.8   ....22            1.25
    ...173    ....28            -.25   ....34         1.03125
    ...173    ....35          .21875   ....40              1.
    ...173    ....50          .03625   ....51             30.
    ...173    ....54        -1.36562
    ...174    .Z....            14.8   ....22            1.25
    ...174    ....28            -.25   ....35          .21875
    ...174    ....40              1.   ....46         1.03125
    ...174    ....50          .03625   ....51             35.
    ...174    ....54        -1.38375
    ...175    .Z....            28.8   ....19           1.072
    ...175    ....28           -.706   ....35           -.027
    ...175    ....42              1.   ....46           -.128
    ...175    ....50           .0129   ....54           -1.61
    ...175    ....55          -.1203
    ...176    .Z....             43.   ....01          -.0012
    ...176    ....06          -.0159   ....19           1.072
    ...176    ....27            .534   ....28            -.69
    ...176    ....35           -.027   ....43              1.
    ...176    ....46           -.128   ....50           .0195
    ...176    ....54           -1.84   ....55          -.1203
    ...177    .Z....             30.   ....01          -.0012
    ...177    ....06          -.0159   ....24              1.
    ...177    ....27            .534   ....28            -.69
    ...177    ....35           -.027   ....44              1.
    ...177    ....46           -.128   ....50           .0195
    ...177    ....54           -1.84   ....55          -.1203
    ...178    .Z....          -1763.   ....05            .181
    ...178    ....45              1.   ....47             .11
    ...178    ....55            .709
    ...179    .Z....          -1722.   ....05            .051
    ...179    ....45              1.   ....47            .055
    ...179    ....55            .894
    ...180    .Z....          -1680.   ....05            .036
    ...180    ....45              1.   ....55            .964
    ...181    ....28             -1.   ....46              1.
    ...181    ....54            -5.3
    ...182    .Z....          -1890.   ....30              1.
    ...182    ....47             .92   ....49           -10.1
    ...182    ....52           -.042   ....53           -.063
    ...182    ....55             .08
    ...183    .Z....           1780.   ....02              1.
    ...183    ....03              .4   ....10             45.
    ...184    .Z....           1600.   ....28             -1.
    ...184    ....54           -4.35
    ...185    .Z....            903.   ....28             -1.
    ...185    ....54            -2.1
    ...186    .Z....           1760.   ....36              1.
    ...186    ....37              .8
    ...187    .Z....           2100.   ....40              1.
    ...187    ....51             24.
    ...188    .Z....           1000.   ....49           -64.3
    ...188    ....52              1.
    ...189    .Z....           1000.   ....49           -27.4
    ...189    ....53              1.
    ...190    .Z....          -1890.   ....30              1.
    ...190    ....49             9.1   ....52           -.042
    ...190    ....53           -.063   ....55              1.
    ...191    .Z....            92.1   ....05            -.36
    ...191    ....23              1.   ....28           -.026
    ...191    ....47           -.134   ....50           -.182
    ...191    ....54          -.1742   ....55            .826
    ...192    .Z....           -903.   ....38              1.
    ...192    ....55              1.
    ...193    .Z....            78.7   ....55              1.
    ...194    .Z....          -1218.   ....48              1.
    ...194    ....55              1.
    ...195    .Z....            15.6   ....05           -.396
    ...195    ....25              1.   ....28           -.029
    ...195    ....47           -.147   ....50           -.119
    ...195    ....54           -.194   ....55             .81
    ...196    ....50             -.8   ....55              1.
RHS
    ZZZZ0001  ....02            52.6   ....03            22.7
    ZZZZ0001  ....04            23.4   ....07            108.
    ZZZZ0001  ....08             50.   ....09             13.
    ZZZZ0001  ....10           2366.   ....11            200.
    ZZZZ0001  ....12            265.   ....13            300.
    ZZZZ0001  ....15             31.   ....16             60.
    ZZZZ0001  ....17            134.   ....18             34.
    ZZZZ0001  ....19            413.   ....20            41.5
    ZZZZ0001  ....21             15.   ....22            20.6
    ZZZZ0001  ....23            13.5   ....24            440.
    ZZZZ0001  ....26             16.   ....27            290.
    ZZZZ0001  ....28          -524.9   ....29             3.1
    ZZZZ0001  ....30             9.1   ....36             43.
    ZZZZ0001  ....37            34.4   ....38            15.6
    ZZZZ0001  ....39            19.2   ....40            44.9
    ZZZZ0001  ....41             6.1   ....45            13.2
    ZZZZ0001  ....48            31.2   ....50             2.5
    ZZZZ0001  ....51           1080.   ....54         -1231.6
    ZZZZ0001  ....56            107.
ENDATA
